units  real 
atom_style	full

read_data       data.pull

# LJ Pair Corfficient 
pair_style	lj/cut 8

pair_coeff  * * 0 0
pair_coeff  3  3  10.0 3

neighbor	2.0 bin

timestep	0.0001

fix 1 all ipi lammps-pull 32345 unix

run		100000000

